NAME: random-42-21047
TYPE: TSP
COMMENT: size=42 seed=21047
DIMENSION: 86
EDGE_WEIGHT_TYPE: EUC_2D
NODE_COORD_SECTION
+0 929 807
-0 929 807
+1 899 408
-1 38 930
+2 222 539
-2 743 751
+3 741 605
-3 514 885
+4 494 449
-4 837 82
+5 699 205
-5 111 825
+6 897 621
-6 708 405
+7 867 966
-7 686 295
+8 683 843
-8 746 275
+9 208 763
-9 87 804
+10 696 271
-10 248 607
+11 131 752
-11 498 137
+12 985 84
-12 643 253
+13 688 473
-13 429 942
+14 195 88
-14 918 163
+15 54 456
-15 501 170
+16 692 879
-16 72 53
+17 7 707
-17 920 112
+18 188 860
-18 252 833
+19 773 254
-19 506 573
+20 724 632
-20 112 164
+21 668 415
-21 670 239
+22 552 459
-22 360 572
+23 346 560
-23 17 767
+24 221 822
-24 390 694
+25 271 503
-25 469 725
+26 394 769
-26 783 994
+27 362 811
-27 394 254
+28 231 916
-28 148 872
+29 460 134
-29 322 349
+30 215 166
-30 157 183
+31 10 963
-31 178 207
+32 153 313
-32 78 374
+33 746 64
-33 409 67
+34 519 529
-34 911 335
+35 990 181
-35 551 333
+36 287 989
-36 432 730
+37 763 475
-37 82 90
+38 621 5
-38 145 613
+39 681 938
-39 834 328
+40 29 313
-40 340 971
+41 927 299
-41 868 785
+42 375 253
-42 255 438
PRECEDENCE_SECTION
+0 -0
+1 -1
+2 -2
+3 -3
+4 -4
+5 -5
+6 -6
+7 -7
+8 -8
+9 -9
+10 -10
+11 -11
+12 -12
+13 -13
+14 -14
+15 -15
+16 -16
+17 -17
+18 -18
+19 -19
+20 -20
+21 -21
+22 -22
+23 -23
+24 -24
+25 -25
+26 -26
+27 -27
+28 -28
+29 -29
+30 -30
+31 -31
+32 -32
+33 -33
+34 -34
+35 -35
+36 -36
+37 -37
+38 -38
+39 -39
+40 -40
+41 -41
+42 -42
EOF
